c Scranfilize CNF Scrambler
c Version 003 9a38402ab0067cde5c53964615ae940a00f23767
c random seed '2019'
c literal flip probability 0.01 ('-f 0.01')
c relative variable move window 0.01 ('-v 0.01')
c relative clause move window 0.01 ('-c 0.01')
p cnf 97 204
-1 -13 -57 0
-1 -13 -69 0
-1 -57 -69 0
-13 -57 -69 0
-29 -77 -85 0
-29 -77 89 0
-29 -85 89 0
-77 -85 89 0
-2 -9 -17 0
-2 -9 -73 0
-2 -17 -73 0
-9 -17 -73 0
-21 -49 -61 0
-21 -49 -74 0
-21 -61 -74 0
-49 -61 -74 0
-18 -45 -65 0
-18 -45 -90 0
-18 -65 -90 0
-45 -65 -90 0
-3 -46 -53 0
-3 -53 -81 0
-3 -46 -81 0
-46 -53 -81 0
-10 -30 -33 0
-10 -33 -50 0
-10 -30 -50 0
-30 -33 -50 0
-5 -22 -31 0
-5 -22 -66 0
-5 -31 -66 0
-4 -25 -34 0
-22 -31 -66 0
-4 -34 -41 0
-4 -25 -41 0
-6 -14 -42 0
-25 -34 -41 0
-6 -42 -78 0
-6 -14 -78 0
-14 -42 -78 0
-62 -67 -70 0
-62 -70 -82 0
-62 -67 -82 0
-67 -70 -82 0
-54 -58 -63 0
-54 -58 -86 0
-58 -63 -86 0
-54 -63 -86 0
-11 -47 -79 0
-11 -47 -64 0
-11 -64 -79 0
-43 59 -68 0
-47 -64 -79 0
-43 59 -75 0
-43 -68 -75 0
59 -68 -75 0
-19 -26 -32 0
-19 -32 -71 0
-19 -26 -71 0
-26 -32 -71 0
-37 -55 -72 0
-37 -72 -91 0
-37 -55 -91 0
-38 -44 -48 0
-55 -72 -91 0
-38 -44 -51 0
-38 -48 -51 0
-44 -48 -51 0
-7 -27 -52 0
-7 -27 -83 0
-7 -52 -83 0
-27 -52 -83 0
-12 -28 -39 0
-12 -28 -93 0
-12 -39 -93 0
-28 -39 -93 0
-15 -23 -87 0
-15 -23 -94 0
-15 -87 -94 0
-23 -87 -94 0
-24 -56 -95 0
-24 -56 -80 0
-24 -80 -95 0
-8 -35 -60 0
-56 -80 -95 0
-8 -60 -96 0
-8 -35 -96 0
-35 -60 -96 0
-16 -76 -84 0
-16 -76 -92 0
-16 -84 -92 0
-20 -36 -40 0
-76 -84 -92 0
-20 -36 -88 0
-20 -36 -97 0
-20 -40 -88 0
-20 -40 -97 0
-36 -40 -88 0
-20 -88 -97 0
-36 -40 -97 0
-36 -88 -97 0
-40 -88 -97 0
1 2 3 0
1 2 4 0
1 3 4 0
2 3 4 0
5 6 7 0
5 6 8 0
6 7 8 0
5 7 8 0
9 10 11 0
9 10 12 0
9 11 12 0
10 11 12 0
13 14 16 0
13 14 15 0
14 15 16 0
13 15 16 0
17 18 19 0
17 18 20 0
17 19 20 0
18 19 20 0
21 22 23 0
21 22 24 0
21 23 24 0
22 23 24 0
25 26 28 0
25 26 27 0
26 27 28 0
25 27 28 0
29 30 31 0
29 30 32 0
29 31 32 0
30 31 32 0
33 34 35 0
33 35 36 0
33 34 36 0
34 35 36 0
37 38 39 0
37 38 40 0
37 39 40 0
38 39 40 0
41 42 43 0
41 42 44 0
41 43 44 0
42 43 44 0
45 46 47 0
45 46 48 0
45 47 48 0
46 47 48 0
49 50 51 0
49 50 52 0
50 51 52 0
49 51 52 0
53 54 56 0
53 54 55 0
53 55 56 0
57 58 -59 0
54 55 56 0
57 58 60 0
57 -59 60 0
61 62 63 0
58 -59 60 0
61 63 64 0
61 62 64 0
65 66 67 0
62 63 64 0
65 66 68 0
66 67 68 0
65 67 68 0
69 70 71 0
69 70 72 0
70 71 72 0
69 71 72 0
73 74 75 0
73 74 76 0
74 75 76 0
73 75 76 0
77 78 79 0
77 78 80 0
77 79 80 0
78 79 80 0
81 82 83 0
81 82 84 0
81 82 97 0
81 83 84 0
81 84 97 0
81 83 97 0
82 83 84 0
82 83 97 0
82 84 97 0
83 84 97 0
85 86 87 0
85 86 88 0
85 87 88 0
86 87 88 0
-89 90 92 0
-89 90 91 0
-89 91 92 0
90 91 92 0
93 94 95 0
93 94 96 0
93 95 96 0
94 95 96 0
